; benchmark generated from python API
(set-info :status unknown)
(declare-datatypes ((RealState 0)) (((RMk1 (rval1 Real)) (RMk2 (rval2 Real)))))
 (assert
 (exists ((|v11:0_st| RealState) (val!6668 Real) )(exists ((|v10:1_st| RealState) (val!6669 Real) )(exists ((|v9:2_st| RealState) (val!6670 Real) )(exists ((|v8:3_st| RealState) (val!6671 Real) )(forall ((|v7:4| Real) )(forall ((|v6:5| Real) )(forall ((|v5:6| Real) )(forall ((|v4:7| Real) )(exists ((|v3:8_st| RealState) (val!6672 Real) )(exists ((|v2:9_st| RealState) (val!6673 Real) )(exists ((|v1:10_st| RealState) (val!6674 Real) )(exists ((|v0:11_st| RealState) (val!6675 Real) )(let ((?x3277 (* 17.0 |v4:7|)))
 (let ((?x3147 (rval2 |v9:2_st|)))
 (let ((?x2645 (* 13.0 ?x3147)))
 (let (($x3212 (<= (+ (+ (+ (* 11.0 (rval2 |v2:9_st|)) (* 14.0 |v6:5|)) ?x2645) ?x3277) 19.0)))
 (let ((?x2096 (- 10.0)))
 (let ((?x800 (* ?x2096 |v6:5|)))
 (let ((?x656 (+ (+ (+ (* 5.0 |v4:7|) (* 11.0 (rval2 |v1:10_st|))) (rval2 |v1:10_st|)) ?x800)))
 (let ((?x2250 (rval2 |v10:1_st|)))
 (let ((?x2572 (- 4.0)))
 (let ((?x3232 (* ?x2572 ?x2250)))
 (let ((?x228 (* 14.0 |v6:5|)))
 (let ((?x2585 (+ (+ (+ (* (- 18.0) |v6:5|) (* (- 13.0) (rval2 |v0:11_st|))) ?x228) ?x3232)))
 (let ((?x3297 (+ (+ (* (- 9.0) (rval2 |v2:9_st|)) (* 18.0 (rval2 |v1:10_st|))) (* (- 1.0) (rval2 |v1:10_st|)))))
 (let (($x1251 (and (and (<= (+ ?x3297 |v6:5|) 9.0) (<= ?x2585 19.0)) (and (<= ?x656 17.0) $x3212))))
 (let ((?x220 (rval2 |v11:0_st|)))
 (let ((?x223 (* 8.0 ?x220)))
 (let ((?x3138 (rval2 |v1:10_st|)))
 (let ((?x1477 (- 5.0)))
 (let ((?x915 (* ?x1477 ?x3138)))
 (let (($x3040 (<= (+ (+ (+ (* (- 11.0) ?x220) (* 5.0 ?x3138)) ?x915) ?x223) 15.0)))
 (let ((?x2993 (+ (+ (* 0.0 (rval2 |v3:8_st|)) (* 2.0 (rval2 |v8:3_st|))) (* (- 12.0) |v4:7|))))
 (let ((?x2503 (- 3.0)))
 (let ((?x879 (* ?x2503 ?x220)))
 (let ((?x3413 (+ (+ (+ (* (- 2.0) ?x2250) (* 3.0 (rval2 |v8:3_st|))) (* 10.0 ?x3138)) ?x879)))
 (let (($x346 (and (<= ?x3413 11.0) (<= (+ (+ (+ (* ?x1477 |v6:5|) (* 6.0 ?x3138)) ?x3232) |v7:4|) 6.0))))
 (let (($x1720 (and (and $x346 (or (<= (+ ?x2993 (* 8.0 |v5:6|)) 14.0) $x3040)) $x1251)))
 (let ((?x1709 (- 16.0)))
 (let ((?x2051 (+ (+ (+ (* 18.0 ?x3138) (* ?x1709 (rval2 |v0:11_st|))) (* 4.0 ?x3147)) (* (- 18.0) (rval2 |v0:11_st|)))))
 (let ((?x2113 (* 0.0 |v7:4|)))
 (let ((?x1809 (+ (+ (+ (* (- 15.0) ?x220) (* 16.0 |v7:4|)) (* 15.0 ?x3147)) ?x2113)))
 (let ((?x2397 (rval2 |v3:8_st|)))
 (let ((?x1805 (* 2.0 ?x2397)))
 (let ((?x490 (+ (+ (+ (* 20.0 ?x220) (* (- 13.0) |v6:5|)) (* 19.0 |v7:4|)) ?x1805)))
 (let ((?x181 (+ (+ (+ (* 0.0 ?x3147) (* 10.0 (rval2 |v2:9_st|))) (* (- 17.0) |v7:4|)) (* ?x1477 (rval2 |v2:9_st|)))))
 (let (($x3222 (and (or (<= ?x181 3.0) (<= ?x490 14.0)) (or (<= ?x1809 0.0) (<= ?x2051 ?x1709)))))
 (let ((?x71 (- 9.0)))
 (let ((?x1319 (- 13.0)))
 (let ((?x102 (* ?x1319 ?x3138)))
 (let (($x2959 (<= (+ (+ (+ (* ?x71 ?x3138) (* (- 20.0) |v6:5|)) (* ?x2572 |v7:4|)) ?x102) ?x71)))
 (let ((?x2340 (+ (+ (+ (* ?x2096 ?x2250) (* 10.0 (rval2 |v2:9_st|))) (* (- 17.0) ?x2250)) (* (- 7.0) |v5:6|))))
 (let ((?x1642 (- 18.0)))
 (let ((?x3266 (* ?x1642 |v5:6|)))
 (let ((?x2756 (+ (+ (+ (* ?x71 |v7:4|) (* (- 2.0) |v4:7|)) (* (- 20.0) ?x3138)) ?x3266)))
 (let ((?x1074 (+ (+ (+ ?x102 (* (- 8.0) ?x220)) (* (- 15.0) ?x2397)) (* 4.0 (rval2 |v0:11_st|)))))
 (let (($x1643 (and (and (<= ?x1074 ?x1319) (<= ?x2756 11.0)) (and (<= ?x2340 18.0) $x2959))))
 (let ((?x1863 (+ (+ (+ (* (- 14.0) ?x3138) (* (- 2.0) ?x220)) (* ?x1642 ?x3138)) (* (- 11.0) ?x3147))))
 (let ((?x3332 (* ?x1319 |v5:6|)))
 (let (($x1682 (<= (+ (+ (+ (* ?x1477 ?x220) (* ?x71 |v5:6|)) (* ?x71 |v7:4|)) ?x3332) ?x1477)))
 (let ((?x2348 (- 20.0)))
 (let ((?x887 (* 5.0 ?x3147)))
 (let ((?x528 (+ (+ (+ (* 17.0 (rval2 |v2:9_st|)) (* (- 1.0) ?x220)) (* 15.0 ?x2397)) ?x887)))
 (let (($x2423 (<= (+ (+ (+ (* 8.0 ?x3138) ?x915) (* 19.0 |v5:6|)) (* ?x2348 ?x2397)) 0.0)))
 (let ((?x496 (- 19.0)))
 (let ((?x1386 (+ (+ (+ (* ?x1319 ?x3147) (* (- 14.0) ?x3138)) (* (- 2.0) ?x2250)) |v5:6|)))
 (let ((?x2085 (+ (+ (+ (* ?x71 |v4:7|) (* ?x496 |v7:4|)) (* (- 12.0) ?x220)) (* 16.0 |v4:7|))))
 (let ((?x3425 (+ (+ (+ (* 7.0 (rval2 |v8:3_st|)) (* ?x2572 |v4:7|)) (* ?x1477 (rval2 |v0:11_st|))) (* (- 14.0) |v6:5|))))
 (let ((?x961 (- 2.0)))
 (let ((?x3223 (+ (+ (+ (* 10.0 (rval2 |v0:11_st|)) (* 10.0 ?x2250)) (* 10.0 ?x3147)) (* ?x2348 ?x220))))
 (let (($x3336 (or (or (<= ?x3223 ?x961) (<= ?x3425 11.0)) (or (<= ?x2085 ?x1642) (<= ?x1386 ?x496)))))
 (let (($x1879 (and $x3336 (and (and $x2423 (<= ?x528 ?x2348)) (and $x1682 (<= ?x1863 17.0))))))
 (let ((?x464 (+ (+ (+ (* 19.0 |v4:7|) (* 16.0 ?x2397)) (* 0.0 |v6:5|)) (* ?x2503 (rval2 |v0:11_st|)))))
 (let ((?x1415 (- 15.0)))
 (let ((?x2749 (- 17.0)))
 (let ((?x3421 (* ?x2749 |v6:5|)))
 (let ((?x2235 (+ (+ (* ?x1319 (rval2 |v0:11_st|)) (* (- 7.0) (rval2 |v2:9_st|))) (* 7.0 ?x3138))))
 (let ((?x632 (+ (+ (+ (* (- 8.0) ?x2250) (* 13.0 ?x3138)) (* ?x1415 ?x2250)) (* (- 7.0) |v4:7|))))
 (let ((?x564 (- 8.0)))
 (let ((?x292 (+ (+ (+ (* 5.0 (rval2 |v0:11_st|)) (* ?x71 |v5:6|)) (* (- 1.0) |v4:7|)) (* 18.0 |v6:5|))))
 (let (($x2854 (and (and (<= ?x292 ?x564) (<= ?x632 0.0)) (and (<= (+ ?x2235 ?x3421) ?x1415) (<= ?x464 18.0)))))
 (let ((?x2387 (- 1.0)))
 (let ((?x2918 (* ?x2387 |v4:7|)))
 (let ((?x81 (+ (+ (+ (* 19.0 (rval2 |v2:9_st|)) (* ?x961 ?x3147)) (* (- 11.0) |v5:6|)) ?x2918)))
 (let ((?x1215 (* ?x1477 |v4:7|)))
 (let ((?x2925 (+ (+ (+ (* ?x1415 |v6:5|) (* ?x1642 (rval2 |v2:9_st|))) (* ?x2348 (rval2 |v2:9_st|))) ?x1215)))
 (let ((?x3071 (rval2 |v8:3_st|)))
 (let ((?x2739 (* 5.0 ?x3071)))
 (let ((?x3251 (+ (+ (+ (* ?x71 ?x3147) (* 2.0 ?x220)) (* 12.0 (rval2 |v2:9_st|))) ?x2739)))
 (let ((?x420 (* 13.0 |v4:7|)))
 (let (($x2619 (<= (+ (+ (+ (* (- 14.0) |v5:6|) (* 16.0 ?x2250)) ?x879) ?x420) 12.0)))
 (let (($x2075 (and (and $x2619 (<= ?x3251 18.0)) (and (<= ?x2925 ?x71) (<= ?x81 ?x2096)))))
 (let ((?x521 (* 7.0 |v4:7|)))
 (let (($x1384 (<= (+ (+ (+ (* 6.0 |v6:5|) (* 5.0 |v7:4|)) (* 17.0 ?x220)) ?x521) ?x564)))
 (let ((?x2493 (* ?x2572 |v6:5|)))
 (let (($x1344 (<= (+ (+ (+ (* 20.0 ?x2250) (* 15.0 ?x2397)) (* ?x2749 |v7:4|)) ?x2493) 9.0)))
 (let ((?x2497 (* 16.0 ?x3147)))
 (let (($x813 (<= (+ (+ (+ (* ?x564 ?x2250) (* 3.0 |v5:6|)) (* ?x2348 ?x2250)) ?x2497) 8.0)))
 (let ((?x3344 (+ (+ (* ?x2096 |v4:7|) (* (- 11.0) (rval2 |v0:11_st|))) (* (- 14.0) ?x2397))))
 (let ((?x1860 (+ (+ (+ (* ?x2387 (rval2 |v0:11_st|)) (* 3.0 ?x3071)) (* ?x2503 ?x3071)) (* ?x1642 ?x3071))))
 (let ((?x547 (+ (+ (+ (* 9.0 (rval2 |v0:11_st|)) (* ?x2348 |v5:6|)) (* ?x71 ?x220)) (* (- 12.0) ?x2250))))
 (let ((?x2135 (+ (+ (+ (* 17.0 ?x220) (* 16.0 (rval2 |v2:9_st|))) (* 6.0 ?x3138)) (* ?x2096 ?x220))))
 (let ((?x2904 (* ?x71 |v5:6|)))
 (let ((?x2890 (+ (+ (+ (* ?x71 (rval2 |v2:9_st|)) (* (- 11.0) |v5:6|)) (* 9.0 |v7:4|)) ?x2904)))
 (let (($x1964 (and (and (<= ?x2890 ?x1477) (<= ?x2135 3.0)) (and (<= ?x547 19.0) (<= ?x1860 12.0)))))
 (let (($x798 (and $x1964 (and (and (<= (+ ?x3344 ?x2397) 10.0) $x813) (or $x1344 $x1384)))))
 (let ((?x2667 (* 2.0 ?x2250)))
 (let ((?x785 (+ (+ (+ (* 20.0 (rval2 |v2:9_st|)) (* 0.0 ?x220)) (* (- 7.0) |v6:5|)) ?x2667)))
 (let ((?x2026 (* ?x564 ?x220)))
 (let (($x2435 (<= (+ (+ (+ (* ?x1709 ?x3071) (* ?x1477 ?x3147)) (* 10.0 ?x3071)) ?x2026) 3.0)))
 (let ((?x721 (rval2 |v0:11_st|)))
 (let ((?x3157 (* 10.0 ?x721)))
 (let ((?x273 (rval2 |v2:9_st|)))
 (let ((?x1868 (* 2.0 ?x273)))
 (let ((?x948 (+ (+ (+ (* (- 7.0) ?x721) (* 13.0 |v5:6|)) (* 20.0 |v5:6|)) ?x1868)))
 (let (($x2772 (and (<= ?x948 16.0) (<= (+ (+ (+ ?x102 (* ?x1477 ?x2250)) (* 7.0 |v5:6|)) ?x3157) 4.0))))
 (let ((?x2441 (* 5.0 |v4:7|)))
 (let (($x2440 (<= (+ (+ (+ (* 20.0 ?x2250) (* ?x1319 |v4:7|)) (* 2.0 ?x3071)) ?x2441) ?x1415)))
 (let ((?x376 (* 16.0 ?x273)))
 (let (($x1258 (<= (+ (+ (+ (* 10.0 ?x3138) (* (- 11.0) |v5:6|)) (* ?x496 ?x220)) ?x376) ?x1319)))
 (let ((?x1537 (* 11.0 ?x273)))
 (let (($x510 (<= (+ (+ (+ (* ?x2503 ?x2250) (* (- 12.0) ?x273)) (* ?x564 ?x3138)) ?x1537) ?x564)))
 (let ((?x3184 (* ?x1319 |v4:7|)))
 (let (($x1486 (<= (+ (+ (+ (* ?x1477 ?x721) (* 6.0 |v5:6|)) (* (- 11.0) ?x3138)) ?x3184) 13.0)))
 (let (($x2367 (and (and (and $x1486 $x510) (and $x1258 $x2440)) (or $x2772 (and $x2435 (<= ?x785 ?x1319))))))
 (let ((?x2091 (+ (+ (+ (* ?x2096 |v5:6|) (* ?x1709 ?x3147)) (* 16.0 |v6:5|)) (* ?x71 ?x3071))))
 (let ((?x1854 (+ (+ (+ (* 20.0 ?x721) (* ?x564 |v6:5|)) (* ?x71 ?x2250)) (* (- 6.0) ?x3147))))
 (let ((?x3120 (* 5.0 ?x2397)))
 (let (($x2613 (<= (+ (+ (+ (* 11.0 |v7:4|) (* ?x1642 ?x3147)) (* ?x496 |v5:6|)) ?x3120) ?x496)))
 (let (($x454 (<= (+ (+ (+ (* ?x1477 ?x3071) (* 11.0 ?x3147)) (* ?x2749 ?x220)) ?x3277) 20.0)))
 (let ((?x864 (* ?x2503 |v4:7|)))
 (let (($x3453 (<= (+ (+ (+ (* ?x2348 ?x273) (* ?x2096 ?x2250)) (* 12.0 ?x721)) ?x864) 2.0)))
 (let (($x2546 (<= (+ (+ (+ (* ?x2348 |v7:4|) ?x2493) (* ?x1642 ?x273)) (* 0.0 ?x273)) ?x2348)))
 (let (($x1245 (<= (+ (+ (+ (* ?x961 |v7:4|) (* ?x2096 |v7:4|)) ?x2667) (* ?x1709 ?x3147)) ?x2572)))
 (let (($x1636 (and (<= (+ (+ (+ (* 10.0 ?x220) |v4:7|) ?x2904) (* 4.0 ?x3138)) ?x1319) $x1245)))
 (let (($x1327 (and (and $x1636 (and $x2546 $x3453)) (and (and $x454 $x2613) (and (<= ?x1854 5.0) (<= ?x2091 ?x2749))))))
 (let ((?x260 (+ (+ (+ (* (- 7.0) ?x2397) (* ?x2749 ?x2397)) (* (- 12.0) |v7:4|)) (* 11.0 ?x2250))))
 (let ((?x3122 (* 15.0 |v4:7|)))
 (let (($x781 (<= (+ (+ (+ (* 18.0 |v7:4|) (* 4.0 ?x220)) (* ?x2096 ?x2250)) ?x3122) 5.0)))
 (let ((?x2496 (* 3.0 ?x3147)))
 (let (($x139 (<= (+ (+ (+ (* 12.0 |v6:5|) (* 19.0 ?x2397)) (* 9.0 ?x3071)) ?x2496) ?x1415)))
 (let (($x2481 (<= (+ (+ (+ (* 19.0 ?x3147) ?x220) (* 20.0 |v5:6|)) (* 20.0 ?x3071)) ?x496)))
 (let (($x2656 (<= (+ (+ (+ ?x2667 (* 3.0 ?x273)) (* 18.0 |v5:6|)) (* 19.0 ?x2250)) 16.0)))
 (let ((?x2761 (* 17.0 ?x2397)))
 (let (($x1011 (<= (+ (+ (+ (* ?x1477 ?x3071) (* 5.0 |v7:4|)) (* 19.0 ?x721)) ?x2761) ?x1415)))
 (let ((?x599 (- 6.0)))
 (let ((?x3039 (* ?x599 |v5:6|)))
 (let ((?x2246 (+ (+ (+ (* (- 14.0) ?x721) (* 4.0 ?x3071)) (* 4.0 |v4:7|)) ?x3039)))
 (let ((?x2926 (* 18.0 ?x273)))
 (let (($x1873 (<= (+ (+ (+ (* (- 7.0) ?x2250) (* ?x1477 ?x3071)) (* 12.0 ?x3071)) ?x2926) 10.0)))
 (let (($x742 (and (or (and $x1873 (<= ?x2246 ?x1319)) (and $x1011 $x2656)) (and (and $x2481 $x139) (and $x781 (<= ?x260 3.0))))))
 (let (($x3088 (and (or (and $x742 $x1327) (and $x2367 $x798)) (and (and (and $x2075 $x2854) $x1879) (and (and $x1643 $x3222) $x1720)))))
 (let (($x1161 (not (= |v0:11_st| (RMk1 val!6675)))))
 (let (($x1272 (not (= |v1:10_st| (RMk1 val!6674)))))
 (let (($x1346 (not (= |v2:9_st| (RMk1 val!6673)))))
 (let (($x2005 (not (= |v3:8_st| (RMk1 val!6672)))))
 (let (($x1367 (not (= |v8:3_st| (RMk1 val!6671)))))
 (let (($x3058 (not (= |v9:2_st| (RMk1 val!6670)))))
 (let (($x1294 (not (= |v10:1_st| (RMk1 val!6669)))))
 (let (($x2915 (not (= |v11:0_st| (RMk1 val!6668)))))
 (and $x2915 $x1294 $x3058 $x1367 $x2005 $x1346 $x1272 $x1161 $x3088))))))))))))))))))))))))))))))))))))))))))))))))))))))))))))))))))))))))))))))))))))))))))))))))))))))))))))))))))))))))))))))))))))))))))))))))))))))
 )
 )
 )
 )
 )
 )
 )
 )
 )
 )
 )
 )
(check-sat)
